
Welcome to IBM(R) ILOG(R) CPLEX(R) Interactive Optimizer 22.1.1.0
  with Simplex, Mixed Integer & Barrier Optimizers
5725-A06 5725-A29 5724-Y48 5724-Y49 5724-Y54 5724-Y55 5655-Y21
Copyright IBM Corp. 1988, 2022.  All Rights Reserved.

Type 'help' for a list of available commands.
Type 'help' followed by a command name for more
information on commands.

CPLEX> Selected objective sense:  MINIMIZE
Selected objective  name:  00000000
Selected RHS        name:  RHS1
Selected bound      name:  BOUND
Problem 'ee.mps' read.
Read time = 0.02 sec. (3.17 ticks)
CPLEX> New value for time limit in seconds: 7200
CPLEX> New value for parallel optimization mode: -1
CPLEX> New value for default parallel thread count: 40
CPLEX> New value for mixed integer optimality gap tolerance: 1e-13
CPLEX> Version identifier: 22.1.1.0 | 2022-11-28 | 9160aff4d
CPXPARAM_Threads                                 40
CPXPARAM_Parallel                                -1
CPXPARAM_TimeLimit                               7200
CPXPARAM_MIP_Tolerances_MIPGap                   1e-13
Found incumbent of value 0.000000 after 0.00 sec. (0.31 ticks)
Tried aggregator 2 times.
MIP Presolve eliminated 183 rows and 2745 columns.
MIP Presolve modified 6090 coefficients.
Aggregator did 713 substitutions.
Reduced MIP has 3636 rows, 7840 columns, and 28953 nonzeros.
Reduced MIP has 7840 binaries, 0 generals, 0 SOSs, and 0 indicators.
Presolve time = 0.07 sec. (69.14 ticks)
Probing time = 0.03 sec. (5.35 ticks)
Tried aggregator 1 time.
Detecting symmetries...
Reduced MIP has 3636 rows, 7840 columns, and 28953 nonzeros.
Reduced MIP has 7840 binaries, 0 generals, 0 SOSs, and 0 indicators.
Presolve time = 0.02 sec. (22.10 ticks)
Probing time = 0.02 sec. (5.13 ticks)
Clique table members: 18788.
MIP emphasis: balance optimality and feasibility.
MIP search method: dynamic search.
Parallel mode: opportunistic, using up to 40 threads.
Root relaxation solution time = 0.10 sec. (80.64 ticks)

        Nodes                                         Cuts/
   Node  Left     Objective  IInf  Best Integer    Best Bound    ItCnt     Gap

*     0+    0                            0.0000  -1.54000e+13              --- 
*     0+    0                      -7.20000e+12  -1.54000e+13           113.89%
      0     0  -1.53900e+13   111  -7.20000e+12  -1.53900e+13     2098  113.75%
*     0+    0                      -1.53900e+13  -1.53900e+13             0.00%
      0     0  -1.53900e+13   165  -1.53900e+13     Cuts: 107     2417    0.00%
*     0+    0                      -1.53900e+13  -1.53900e+13             0.00%
      0     0  -1.53900e+13   247  -1.53900e+13      Cuts: 69     2946    0.00%
*     0+    0                      -1.53900e+13  -1.53900e+13             0.00%
*     0+    0                      -1.53900e+13  -1.53900e+13             0.00%
      0     2  -1.53900e+13   232  -1.53900e+13  -1.53900e+13     2946    0.00%
Elapsed time = 2.14 sec. (1122.14 ticks, tree = 0.02 MB, solutions = 6)
*    20+   22                      -1.53900e+13  -1.53900e+13             0.00%
    552    66  -1.53900e+13    98  -1.53900e+13  -1.53900e+13    18558    0.00%
   1192   122        cutoff        -1.53900e+13  -1.53900e+13    53794    0.00%
   1974   150        cutoff        -1.53900e+13  -1.53900e+13    68407    0.00%
   2615   242        cutoff        -1.53900e+13  -1.53900e+13    98349    0.00%
   3238   360        cutoff        -1.53900e+13  -1.53900e+13   162820    0.00%
   3643   552        cutoff        -1.53900e+13  -1.53900e+13   271364    0.00%
   4011   499  -1.53900e+13   195  -1.53900e+13  -1.53900e+13   223027    0.00%
   4260   476  -1.53900e+13   151  -1.53900e+13  -1.53900e+13   213536    0.00%
   4523   587  -1.53900e+13   219  -1.53900e+13  -1.53900e+13   353227    0.00%
   6734   430  -1.53900e+13   120  -1.53900e+13  -1.53900e+13   737722    0.00%
Elapsed time = 8.81 sec. (4228.97 ticks, tree = 5.09 MB, solutions = 11)
   9491   657  -1.53900e+13    60  -1.53900e+13  -1.53900e+13   645815    0.00%
  12570   484  -1.53900e+13    55  -1.53900e+13  -1.53900e+13   719147    0.00%
  14531   318        cutoff        -1.53900e+13  -1.53900e+13   838114    0.00%

Performing restart 1

Repeating presolve.
Tried aggregator 2 times.
MIP Presolve eliminated 29 rows and 19 columns.
MIP Presolve modified 1865 coefficients.
Aggregator did 3 substitutions.
Reduced MIP has 3528 rows, 7818 columns, and 28285 nonzeros.
Reduced MIP has 7818 binaries, 0 generals, 0 SOSs, and 0 indicators.
Presolve time = 0.06 sec. (39.88 ticks)
Tried aggregator 2 times.
MIP Presolve eliminated 11 rows and 40 columns.
MIP Presolve modified 28 coefficients.
Aggregator did 16 substitutions.
Reduced MIP has 3501 rows, 7756 columns, and 28059 nonzeros.
Reduced MIP has 7756 binaries, 0 generals, 0 SOSs, and 0 indicators.
Presolve time = 0.05 sec. (54.29 ticks)
Represolve time = 0.23 sec. (150.90 ticks)
  14764     0  -1.53900e+13   228  -1.53900e+13      Cuts: 27  1020030    0.00%
  14764     0  -1.53900e+13   227  -1.53900e+13      Cuts: 19  1020202    0.00%
  14764     0  -1.53900e+13   280  -1.53900e+13      Cuts: 16  1020349    0.00%
  14764     0  -1.53900e+13   254  -1.53900e+13      Cuts: 22  1020396    0.00%
  14764     0  -1.53900e+13   233  -1.53900e+13      Cuts: 22  1020505    0.00%
  14764     0  -1.53900e+13   232  -1.53900e+13      Cuts: 19  1020587    0.00%
  14764     0  -1.53900e+13   231  -1.53900e+13      Cuts: 20  1020609    0.00%
  14764     6    infeasible        -1.53900e+13  -1.53900e+13  1025822    0.00%
  15392    15  -1.53900e+13   215  -1.53900e+13  -1.53900e+13  1045237    0.00%

GUB cover cuts applied:  3
Clique cuts applied:  17
Cover cuts applied:  214
Mixed integer rounding cuts applied:  5
Zero-half cuts applied:  40
Lift and project cuts applied:  3
Gomory fractional cuts applied:  19

Root node processing (before b&c):
  Real time             =    1.25 sec. (1108.58 ticks)
Parallel b&c, 40 threads:
  Real time             =   15.36 sec. (10314.59 ticks)
  Sync time (average)   =    2.99 sec.
  Wait time (average)   =    0.10 sec.
                          ------------
Total (root+branch&cut) =   16.61 sec. (11423.17 ticks)

Solution pool: 14 solutions saved.

MIP - Integer optimal solution:  Objective = -1.5389998389e+13
Solution time =   16.72 sec.  Iterations = 1052376  Nodes = 15402
Deterministic time = 11423.20 ticks  (683.07 ticks/sec)

CPLEX> Solution 'p15' written to file 'ee.sol'.
CPLEX> 